jobs  (incl. supersource/sink ):	52
RESOURCES
- renewable                 : 2 R
- nonrenewable              : 2 N
- doubly constrained        : 0 D
************************************************************************
PRECEDENCE RELATIONS:
jobnr.    #modes  #successors   successors
1	1	5		2 3 5 6 11 
2	3	5		18 13 12 9 4 
3	3	7		23 14 12 10 9 8 7 
4	3	7		26 24 23 19 17 15 10 
5	3	6		26 23 16 15 13 10 
6	3	9		30 25 24 23 21 18 16 15 14 
7	3	11		43 40 36 30 28 26 25 24 21 20 19 
8	3	9		43 40 31 30 29 26 25 24 16 
9	3	8		43 34 30 29 26 25 16 15 
10	3	10		40 36 34 31 30 28 27 25 22 21 
11	3	6		34 32 26 25 21 15 
12	3	10		43 42 40 35 32 29 28 27 26 21 
13	3	6		40 34 30 29 25 20 
14	3	8		49 43 42 35 34 31 29 26 
15	3	7		42 40 39 36 35 28 27 
16	3	7		50 42 39 36 32 28 27 
17	3	7		50 42 35 32 31 28 27 
18	3	9		51 49 48 42 40 38 37 33 32 
19	3	5		50 49 37 32 29 
20	3	4		51 50 32 27 
21	3	7		51 50 49 48 47 37 33 
22	3	7		51 49 47 43 39 35 33 
23	3	6		49 48 39 37 34 33 
24	3	3		47 35 27 
25	3	7		49 48 47 42 41 38 35 
26	3	7		51 50 48 47 46 44 41 
27	3	4		49 48 37 33 
28	3	4		51 47 38 37 
29	3	3		39 38 33 
30	3	2		48 32 
31	3	2		48 33 
32	3	4		47 46 44 41 
33	3	3		46 44 41 
34	3	3		47 44 41 
35	3	3		46 45 44 
36	3	1		37 
37	3	2		45 44 
38	3	2		46 44 
39	3	2		46 44 
40	3	2		50 45 
41	3	1		45 
42	3	1		44 
43	3	1		45 
44	3	1		52 
45	3	1		52 
46	3	1		52 
47	3	1		52 
48	3	1		52 
49	3	1		52 
50	3	1		52 
51	3	1		52 
52	1	0		
************************************************************************
REQUESTS/DURATIONS
jobnr.	mode	dur	R1	R2	N1	N2	
------------------------------------------------------------------------
1	1	0	0	0	0	0	
2	1	1	7	9	8	5	
	2	4	7	7	5	4	
	3	8	7	6	3	3	
3	1	3	10	6	5	8	
	2	4	7	2	4	6	
	3	9	2	1	3	4	
4	1	1	8	8	5	7	
	2	5	8	8	3	6	
	3	8	5	7	3	5	
5	1	2	4	6	2	1	
	2	4	4	4	1	1	
	3	5	3	3	1	1	
6	1	1	7	6	7	3	
	2	3	7	6	6	3	
	3	9	4	3	5	3	
7	1	1	9	8	5	5	
	2	5	8	3	4	3	
	3	10	7	2	3	2	
8	1	7	7	5	9	10	
	2	9	6	2	8	7	
	3	10	6	2	8	6	
9	1	1	5	5	1	5	
	2	3	4	4	1	2	
	3	4	3	3	1	1	
10	1	1	8	7	5	6	
	2	5	6	7	4	5	
	3	9	6	4	4	2	
11	1	7	9	6	3	8	
	2	9	6	6	3	5	
	3	10	4	3	3	5	
12	1	1	6	6	8	7	
	2	8	6	6	6	6	
	3	10	6	6	2	6	
13	1	2	6	6	6	5	
	2	3	5	4	4	5	
	3	9	5	2	3	3	
14	1	3	7	7	4	4	
	2	5	7	5	4	2	
	3	9	5	2	3	2	
15	1	1	6	8	8	6	
	2	5	5	6	7	5	
	3	7	3	4	7	4	
16	1	3	10	7	7	7	
	2	6	9	6	7	5	
	3	9	8	3	7	4	
17	1	3	4	5	6	6	
	2	4	3	3	6	3	
	3	9	3	2	4	2	
18	1	7	5	4	7	8	
	2	8	5	4	7	7	
	3	9	4	4	7	7	
19	1	1	9	3	2	7	
	2	3	8	3	1	7	
	3	6	5	3	1	6	
20	1	2	8	7	7	3	
	2	4	5	4	7	3	
	3	10	4	3	7	3	
21	1	5	10	3	3	4	
	2	6	8	1	2	4	
	3	8	8	1	2	3	
22	1	8	9	6	10	6	
	2	9	8	6	7	5	
	3	10	8	6	5	3	
23	1	3	6	5	8	3	
	2	4	5	3	8	3	
	3	5	5	2	7	1	
24	1	4	7	4	10	5	
	2	5	7	2	8	2	
	3	10	7	1	7	1	
25	1	4	6	10	6	8	
	2	7	5	8	5	8	
	3	9	3	8	2	7	
26	1	3	5	5	4	6	
	2	5	4	3	3	6	
	3	7	3	2	2	3	
27	1	7	9	3	10	7	
	2	8	8	3	5	7	
	3	10	5	1	3	6	
28	1	1	6	8	3	6	
	2	4	4	8	2	4	
	3	5	3	7	2	4	
29	1	1	2	10	3	5	
	2	5	2	9	3	3	
	3	7	2	9	1	2	
30	1	5	8	8	2	10	
	2	9	6	7	2	5	
	3	10	3	2	2	1	
31	1	4	2	4	9	8	
	2	7	2	3	7	7	
	3	9	2	3	4	5	
32	1	2	10	9	8	5	
	2	5	9	8	6	4	
	3	8	9	6	1	4	
33	1	8	3	9	10	10	
	2	9	3	6	4	9	
	3	10	3	4	3	8	
34	1	4	6	8	10	6	
	2	8	4	6	7	4	
	3	10	3	3	5	4	
35	1	1	7	5	9	8	
	2	9	7	5	7	5	
	3	10	7	4	1	4	
36	1	2	10	8	9	5	
	2	6	8	6	9	5	
	3	9	8	4	9	3	
37	1	1	7	9	6	7	
	2	4	6	7	5	7	
	3	8	6	5	3	3	
38	1	2	8	9	4	8	
	2	3	8	4	3	5	
	3	9	7	1	1	4	
39	1	1	8	4	7	5	
	2	4	5	2	6	2	
	3	6	2	2	6	2	
40	1	1	7	3	1	9	
	2	3	6	3	1	8	
	3	8	6	3	1	7	
41	1	1	7	5	3	6	
	2	9	4	4	3	5	
	3	10	4	4	3	4	
42	1	3	9	4	7	8	
	2	7	6	2	7	5	
	3	9	1	2	4	4	
43	1	2	8	6	9	5	
	2	4	3	4	8	5	
	3	5	2	4	8	5	
44	1	2	6	2	6	4	
	2	8	5	1	4	4	
	3	10	5	1	2	4	
45	1	7	9	9	8	6	
	2	8	7	7	5	5	
	3	9	6	3	4	5	
46	1	3	7	6	8	9	
	2	5	6	5	7	5	
	3	9	4	5	5	2	
47	1	2	7	6	7	6	
	2	6	6	5	6	5	
	3	8	6	5	4	5	
48	1	2	8	7	9	9	
	2	7	4	5	9	9	
	3	10	1	4	9	8	
49	1	2	4	9	8	9	
	2	3	3	7	7	9	
	3	6	2	3	7	7	
50	1	2	6	6	6	3	
	2	4	5	5	5	3	
	3	7	2	5	4	1	
51	1	3	4	8	5	6	
	2	5	3	8	4	5	
	3	7	1	8	2	4	
52	1	0	0	0	0	0	
************************************************************************

 RESOURCE AVAILABILITIES 
	R 1	R 2	N 1	N 2
	25	24	283	283

************************************************************************
